NAME : XML100_1372_11
DIMENSION : 101
NB_CLUSTERS : 5
CLUSTERING_ALG : DBSCAN
CLUSTERING_PARAMS : eps(124), minSamples(3)
CLUSTERS
1 0
2 1 6 7 18 21 23 24 29 30 38 40 42 43 44 46 47 48 59 66 69 71 73 75 77 78 84 87 88 99
3 4 5 8 10 11 12 13 14 15 16 19 22 25 26 27 28 31 32 33 35 36 37 39 41 45 52 53 54 55 56 57 58 60 61 62 65 67 68 72 74 76 79 80 81 82 85 86 89 90 91 93 94 95 96 97 98 100
4 17 20 34 49 63 64 70 83
5 2 3 9 50 51 92
EOF